; benchmark generated from python API
(set-info :status unknown)
(declare-fun x_day () Int)
(declare-fun x_month () Int)
(declare-fun x_year () Int)
(declare-fun x_epoch () Int)
(declare-fun x_shift_period_211906_day () Int)
(declare-fun x_shift_period_211906_month () Int)
(declare-fun x_shift_period_211906_year () Int)
(declare-fun x_shift_period_211906_epoch () Int)
(declare-fun x_shift_period_214125_day () Int)
(declare-fun x_shift_period_214125_month () Int)
(declare-fun x_shift_period_214125_year () Int)
(declare-fun x_shift_period_214125_epoch () Int)
(assert
 (let (($x426 (> x_month 2)))
 (let (($x638 (= (mod x_year 4) 0)))
 (let (($x273 (= (mod x_year 100) 0)))
 (let (($x679 (= (mod x_year 400) 0)))
 (let (($x3912 (ite $x679 true (ite $x273 false $x638))))
 (let (($x1580 (= x_month 9)))
 (let ((?x1526 (ite $x1580 243 (ite (= x_month 10) 273 (ite (= x_month 11) 304 334)))))
 (let (($x399 (= x_month 6)))
 (let ((?x490 (ite $x399 151 (ite (= x_month 7) 181 (ite (= x_month 8) 212 ?x1526)))))
 (let (($x1789 (= x_month 4)))
 (let (($x185 (= x_month 3)))
 (let (($x248 (= x_month 2)))
 (let ((?x394 (ite $x248 31 (ite $x185 59 (ite $x1789 90 (ite (= x_month 5) 120 ?x490))))))
 (let (($x113 (= x_month 1)))
 (let ((?x1519 (ite $x113 0 ?x394)))
 (let ((?x420 (- (+ (* 365 (- x_year 1)) (div (- x_year 1) 4)) (div (- x_year 1) 100))))
 (let ((?x1324 (+ (+ ?x420 (div (- x_year 1) 400)) (+ ?x1519 (ite (and $x3912 $x426) 1 0)))))
 (let (($x3906 (<= x_year 2400)))
 (let (($x590 (>= x_year 1600)))
 (let ((?x941 (ite (or $x1789 $x399 $x1580 (= x_month 11)) 30 31)))
 (let ((?x139 (ite $x248 (ite $x3912 29 28) ?x941)))
 (let (($x444 (>= x_day 1)))
 (let (($x1167 (<= x_month 12)))
 (let (($x1264 (>= x_month 1)))
 (and $x1264 $x1167 $x444 (<= x_day ?x139) $x590 $x3906 (= x_epoch (+ ?x1324 (- x_day 1)))))))))))))))))))))))))))))
(assert
 (let (($x444 (>= x_day 1)))
 (let (($x113 (= x_month 1)))
 (let (($x954 (= x_year 2023)))
 (let (($x1153 (and $x954 $x113 $x444)))
 (or (> x_year 2023) (and $x954 (> x_month 1)) $x1153))))))
(assert
 (let (($x863 (<= x_day 31)))
 (let (($x3025 (= x_month 12)))
 (let (($x954 (= x_year 2023)))
 (let (($x318 (and $x954 $x3025 $x863)))
 (let (($x321 (< x_year 2023)))
 (or $x321 (and $x954 (< x_month 12)) $x318)))))))
(assert
 (let (($x2158 (= (mod x_shift_period_211906_year 4) 0)))
 (let (($x104 (= (mod x_shift_period_211906_year 100) 0)))
 (let (($x3017 (= (mod x_shift_period_211906_year 400) 0)))
 (let (($x738 (ite $x3017 true (ite $x104 false $x2158))))
 (let ((?x4208 (ite (= x_shift_period_211906_month 10) 273 (ite (= x_shift_period_211906_month 11) 304 334))))
 (let (($x2342 (= x_shift_period_211906_month 9)))
 (let ((?x4206 (ite (= x_shift_period_211906_month 7) 181 (ite (= x_shift_period_211906_month 8) 212 (ite $x2342 243 ?x4208)))))
 (let (($x4300 (= x_shift_period_211906_month 6)))
 (let (($x4286 (= x_shift_period_211906_month 4)))
 (let ((?x4200 (ite $x4286 90 (ite (= x_shift_period_211906_month 5) 120 (ite $x4300 151 ?x4206)))))
 (let (($x2226 (= x_shift_period_211906_month 2)))
 (let ((?x3581 (ite (= x_shift_period_211906_month 1) 0 (ite $x2226 31 (ite (= x_shift_period_211906_month 3) 59 ?x4200)))))
 (let ((?x3507 (+ ?x3581 (ite (and $x738 (> x_shift_period_211906_month 2)) 1 0))))
 (let ((?x4458 (+ (* 365 (- x_shift_period_211906_year 1)) (div (- x_shift_period_211906_year 1) 4))))
 (let ((?x4235 (+ (- ?x4458 (div (- x_shift_period_211906_year 1) 100)) (div (- x_shift_period_211906_year 1) 400))))
 (let (($x2974 (= x_shift_period_211906_epoch (+ (+ ?x4235 ?x3507) (- x_shift_period_211906_day 1)))))
 (let (($x2759 (<= x_shift_period_211906_year 2400)))
 (let (($x4306 (>= x_shift_period_211906_year 1600)))
 (let ((?x4298 (ite (or $x4286 $x4300 $x2342 (= x_shift_period_211906_month 11)) 30 31)))
 (let (($x2070 (>= x_shift_period_211906_day 1)))
 (let (($x3630 (<= x_shift_period_211906_month 12)))
 (let (($x4262 (>= x_shift_period_211906_month 1)))
 (and $x4262 $x3630 $x2070 (<= x_shift_period_211906_day (ite $x2226 (ite $x738 29 28) ?x4298)) $x4306 $x2759 $x2974))))))))))))))))))))))))
(assert
 (let ((?x468 (* 12 x_year)))
 (let ((?x283 (+ ?x468 (- x_month 1))))
 (let ((?x3790 (+ ?x283 2)))
 (let ((?x1455 (div ?x3790 12)))
 (= x_shift_period_211906_year ?x1455))))))
(assert
 (let ((?x1626 (+ (mod (+ (+ (* 12 x_year) (- x_month 1)) 2) 12) 1)))
 (= x_shift_period_211906_month ?x1626)))
(assert
 (let ((?x1626 (+ (mod (+ (+ (* 12 x_year) (- x_month 1)) 2) 12) 1)))
 (let ((?x3265 (ite (or (= ?x1626 4) (= ?x1626 6) (= ?x1626 9) (= ?x1626 11)) 30 31)))
 (let ((?x468 (* 12 x_year)))
 (let ((?x283 (+ ?x468 (- x_month 1))))
 (let ((?x3790 (+ ?x283 2)))
 (let ((?x1455 (div ?x3790 12)))
 (let (($x4248 (ite (= (mod ?x1455 400) 0) true (ite (= (mod ?x1455 100) 0) false (= (mod ?x1455 4) 0)))))
 (let ((?x2097 (ite (= ?x1626 2) (ite $x4248 29 28) ?x3265)))
 (let ((?x4158 (ite (<= x_day ?x2097) x_day ?x2097)))
 (let (($x284 (= x_month 11)))
 (let (($x1580 (= x_month 9)))
 (let (($x399 (= x_month 6)))
 (let (($x1789 (= x_month 4)))
 (let ((?x941 (ite (or $x1789 $x399 $x1580 $x284) 30 31)))
 (let (($x638 (= (mod x_year 4) 0)))
 (let (($x273 (= (mod x_year 100) 0)))
 (let (($x679 (= (mod x_year 400) 0)))
 (let (($x3912 (ite $x679 true (ite $x273 false $x638))))
 (let (($x248 (= x_month 2)))
 (let ((?x139 (ite $x248 (ite $x3912 29 28) ?x941)))
 (let (($x239 (= x_day ?x139)))
 (= x_shift_period_211906_day (ite false (ite $x239 ?x2097 ?x4158) ?x4158))))))))))))))))))))))))
(assert
 (let (($x945 (= (mod x_shift_period_214125_year 4) 0)))
 (let (($x4422 (= (mod x_shift_period_214125_year 100) 0)))
 (let (($x3317 (= (mod x_shift_period_214125_year 400) 0)))
 (let (($x4425 (ite $x3317 true (ite $x4422 false $x945))))
 (let ((?x3990 (ite (= x_shift_period_214125_month 10) 273 (ite (= x_shift_period_214125_month 11) 304 334))))
 (let (($x1740 (= x_shift_period_214125_month 9)))
 (let ((?x143 (ite (= x_shift_period_214125_month 7) 181 (ite (= x_shift_period_214125_month 8) 212 (ite $x1740 243 ?x3990)))))
 (let (($x4424 (= x_shift_period_214125_month 6)))
 (let (($x992 (= x_shift_period_214125_month 4)))
 (let ((?x1451 (ite $x992 90 (ite (= x_shift_period_214125_month 5) 120 (ite $x4424 151 ?x143)))))
 (let (($x833 (= x_shift_period_214125_month 2)))
 (let ((?x1943 (ite (= x_shift_period_214125_month 1) 0 (ite $x833 31 (ite (= x_shift_period_214125_month 3) 59 ?x1451)))))
 (let ((?x4431 (+ ?x1943 (ite (and $x4425 (> x_shift_period_214125_month 2)) 1 0))))
 (let ((?x932 (+ (* 365 (- x_shift_period_214125_year 1)) (div (- x_shift_period_214125_year 1) 4))))
 (let ((?x4219 (+ (- ?x932 (div (- x_shift_period_214125_year 1) 100)) (div (- x_shift_period_214125_year 1) 400))))
 (let (($x3983 (= x_shift_period_214125_epoch (+ (+ ?x4219 ?x4431) (- x_shift_period_214125_day 1)))))
 (let (($x4216 (<= x_shift_period_214125_year 2400)))
 (let (($x4218 (>= x_shift_period_214125_year 1600)))
 (let ((?x2472 (ite (or $x992 $x4424 $x1740 (= x_shift_period_214125_month 11)) 30 31)))
 (let (($x4179 (>= x_shift_period_214125_day 1)))
 (let (($x2544 (<= x_shift_period_214125_month 12)))
 (let (($x4181 (>= x_shift_period_214125_month 1)))
 (and $x4181 $x2544 $x4179 (<= x_shift_period_214125_day (ite $x833 (ite $x4425 29 28) ?x2472)) $x4218 $x4216 $x3983))))))))))))))))))))))))
(assert
 (let ((?x1349 (+ (mod (+ (+ (* 12 x_year) (- x_month 1)) 0) 12) 1)))
 (let (($x1562 (= ?x1349 11)))
 (let (($x973 (= ?x1349 9)))
 (let (($x667 (= ?x1349 6)))
 (let (($x3845 (= ?x1349 4)))
 (let ((?x468 (* 12 x_year)))
 (let ((?x283 (+ ?x468 (- x_month 1))))
 (let ((?x3685 (+ ?x283 0)))
 (let ((?x291 (div ?x3685 12)))
 (let (($x2009 (ite (= (mod ?x291 400) 0) true (ite (= (mod ?x291 100) 0) false (= (mod ?x291 4) 0)))))
 (let (($x337 (= ?x1349 2)))
 (let ((?x3120 (ite $x337 (ite $x2009 29 28) (ite (or $x3845 $x667 $x973 $x1562) 30 31))))
 (let ((?x1147 (ite (<= x_day ?x3120) x_day ?x3120)))
 (let (($x284 (= x_month 11)))
 (let (($x1580 (= x_month 9)))
 (let (($x399 (= x_month 6)))
 (let (($x1789 (= x_month 4)))
 (let ((?x941 (ite (or $x1789 $x399 $x1580 $x284) 30 31)))
 (let (($x638 (= (mod x_year 4) 0)))
 (let (($x273 (= (mod x_year 100) 0)))
 (let (($x679 (= (mod x_year 400) 0)))
 (let (($x3912 (ite $x679 true (ite $x273 false $x638))))
 (let (($x248 (= x_month 2)))
 (let ((?x139 (ite $x248 (ite $x3912 29 28) ?x941)))
 (let (($x239 (= x_day ?x139)))
 (let ((?x546 (ite (= ?x1349 8) 212 (ite $x973 243 (ite (= ?x1349 10) 273 (ite $x1562 304 334))))))
 (let ((?x467 (ite (= ?x1349 5) 120 (ite $x667 151 (ite (= ?x1349 7) 181 ?x546)))))
 (let ((?x1199 (ite (= ?x1349 1) 0 (ite $x337 31 (ite (= ?x1349 3) 59 (ite $x3845 90 ?x467))))))
 (let ((?x266 (- (+ (* 365 (- ?x291 1)) (div (- ?x291 1) 4)) (div (- ?x291 1) 100))))
 (let ((?x347 (+ (+ ?x266 (div (- ?x291 1) 400)) (+ ?x1199 (ite (and $x2009 (> ?x1349 2)) 1 0)))))
 (let ((?x338 (+ ?x347 (- (ite false (ite $x239 ?x3120 ?x1147) ?x1147) 1))))
 (= x_shift_period_214125_epoch (+ ?x338 61))))))))))))))))))))))))))))))))))
(assert
 (= x_shift_period_211906_epoch x_shift_period_214125_epoch))
(check-sat)
